NAME: random-65-32284
TYPE: TSP
COMMENT: size=65 seed=32284
DIMENSION: 132
EDGE_WEIGHT_TYPE: EUC_2D
NODE_COORD_SECTION
+0 188 554
-0 188 554
+1 367 252
-1 350 700
+2 422 131
-2 100 964
+3 306 876
-3 233 152
+4 319 580
-4 994 229
+5 786 359
-5 298 2
+6 941 855
-6 820 135
+7 534 1
-7 512 502
+8 377 624
-8 379 160
+9 708 223
-9 318 446
+10 803 8
-10 102 737
+11 389 718
-11 775 877
+12 908 805
-12 269 771
+13 700 971
-13 806 535
+14 434 251
-14 776 567
+15 413 808
-15 367 363
+16 240 543
-16 444 809
+17 493 112
-17 524 157
+18 925 545
-18 666 58
+19 326 672
-19 852 341
+20 585 287
-20 372 62
+21 418 752
-21 924 643
+22 982 790
-22 776 749
+23 616 698
-23 867 527
+24 303 659
-24 374 626
+25 422 166
-25 380 373
+26 494 287
-26 380 399
+27 158 212
-27 182 25
+28 692 568
-28 56 584
+29 749 720
-29 681 138
+30 601 180
-30 584 647
+31 231 907
-31 579 505
+32 224 811
-32 683 663
+33 397 556
-33 443 665
+34 329 194
-34 32 78
+35 563 936
-35 354 234
+36 929 548
-36 794 497
+37 207 867
-37 988 363
+38 984 740
-38 954 527
+39 846 665
-39 24 662
+40 285 197
-40 396 713
+41 940 173
-41 937 201
+42 508 494
-42 139 872
+43 267 900
-43 478 842
+44 857 589
-44 831 695
+45 592 134
-45 843 610
+46 209 337
-46 331 419
+47 407 503
-47 438 814
+48 939 942
-48 53 475
+49 617 855
-49 435 440
+50 75 290
-50 69 100
+51 674 480
-51 994 996
+52 663 946
-52 206 895
+53 18 967
-53 247 283
+54 522 645
-54 709 948
+55 352 156
-55 401 96
+56 124 781
-56 131 711
+57 930 460
-57 410 789
+58 376 485
-58 687 896
+59 762 107
-59 941 491
+60 794 408
-60 649 177
+61 656 852
-61 999 846
+62 678 998
-62 403 76
+63 470 941
-63 196 321
+64 301 367
-64 782 682
+65 754 262
-65 912 334
PRECEDENCE_SECTION
+0 -0
+1 -1
+2 -2
+3 -3
+4 -4
+5 -5
+6 -6
+7 -7
+8 -8
+9 -9
+10 -10
+11 -11
+12 -12
+13 -13
+14 -14
+15 -15
+16 -16
+17 -17
+18 -18
+19 -19
+20 -20
+21 -21
+22 -22
+23 -23
+24 -24
+25 -25
+26 -26
+27 -27
+28 -28
+29 -29
+30 -30
+31 -31
+32 -32
+33 -33
+34 -34
+35 -35
+36 -36
+37 -37
+38 -38
+39 -39
+40 -40
+41 -41
+42 -42
+43 -43
+44 -44
+45 -45
+46 -46
+47 -47
+48 -48
+49 -49
+50 -50
+51 -51
+52 -52
+53 -53
+54 -54
+55 -55
+56 -56
+57 -57
+58 -58
+59 -59
+60 -60
+61 -61
+62 -62
+63 -63
+64 -64
+65 -65
EOF
